NAME: random problem
TYPE: MTSP
COMMENT: MTSP problem for MRS UAV summer school
DIMENSION: 20
NUMBER_OF_ROBOTS: 2
START_TARGET_INDEXES: 1, 2
NEIGHBORHOOD_RADIUS: 2
EDGE_WEIGHT_TYPE: EUC_2D
NODE_COORD_SECTION
1 15.0 -21.0
2 -5.0 -25.0
3 -17.1 -7.7
4 -31.6 -18.9
5 -24.8 -22.9
6 -30.1 -23.5
7 15.3 7.3
8 -29.1 -32.9
9 -11.0 -14.0
10 -25.5 -14.5
11 28.5 23.2
12 -9.8 -4.4
13 -33.1 -21.9
14 -32.6 -5.4
15 30.5 -22.7
16 1.6 4.7
17 -5.4 9.8
18 20.2 -24.9
19 34.7 -19.9
20 -6.6 -1.5
EOF
